20:20:03 | INFO    | Run started | run_id: SR_SV_RD_case1_P5_eps9999 | log file: C:\Users\Asus\Documents\GitHub\logistics-model2\internal-logistics-model2\results\SR_SV_RD\case1\SR_SV_RD_case1_P5_eps9999_2026_05_04_20_20.log
20:20:03 | INFO    | Products loaded | sheet=case1 | rows=10
20:20:03 | INFO    | Data loaded | |N|=26 |Nw|=25 |K|=1 |R|=1 |P|=5 | U=25
20:20:03 | INFO    | Big-M | time=491.0 precedence=480.0 wait=465.0 load_lb=20 load_ub=20
20:20:03 | INFO    | Set parameter Username
20:20:03 | INFO    | Set parameter LicenseID to value 2811848
20:20:03 | INFO    | Academic license - for non-commercial use only - expires 2027-04-22
20:20:03 | INFO    | Objective set | primary: min route_duration | tie-break weight on wait: 0.001
20:20:03 | INFO    | Constraint (3) added | total_wait <= 9999
20:20:03 | INFO    | Constraints (4)-(9) added | route structure
20:20:03 | INFO    | Constraints (10)-(12) added | product assignment
20:20:03 | INFO    | Constraints (13)-(15) added | route timing
20:20:03 | INFO    | Constraints (16) added | time consistency
20:20:03 | INFO    | Constraints (17)-(19) added | service times
20:20:03 | INFO    | Constraints (20)-(22) added | precedence, route closure, waiting
20:20:03 | INFO    | Constraints (23)-(27) added | load propagation
20:20:03 | INFO    | Constraints (28)-(32) added | MTZ and route ordering
20:20:03 | INFO    | Set parameter TimeLimit to value 600
20:20:03 | INFO    | Set parameter MIPGap to value 0.01
20:20:03 | INFO    | Set parameter Presolve to value 2
20:20:03 | INFO    | Set parameter LogFile to value "C:\Users\Asus\Documents\GitHub\logistics-model2\internal-logistics-model2\results\SR_SV_RD\case1\result_SR_SV_RD_case1_P5_eps9999_2026_05_04_20_20.log"
20:20:03 | INFO    | Solver configured | TimeLimit=600s | MIPGap=0.01 | gurobi_log=C:\Users\Asus\Documents\GitHub\logistics-model2\internal-logistics-model2\results\SR_SV_RD\case1\result_SR_SV_RD_case1_P5_eps9999_2026_05_04_20_20.log
20:20:03 | INFO    | Optimization starting...
20:20:03 | INFO    | Gurobi Optimizer version 12.0.0 build v12.0.0rc1 (win64 - Windows 10.0 (19045.2))
20:20:03 | INFO    | 
20:20:03 | INFO    | CPU model: 12th Gen Intel(R) Core(TM) i7-12650H, instruction set [SSE2|AVX|AVX2]
20:20:03 | INFO    | Thread count: 10 physical cores, 16 logical processors, using up to 16 threads
20:20:03 | INFO    | 
20:20:03 | INFO    | Non-default parameters:
20:20:03 | INFO    | TimeLimit  600
20:20:03 | INFO    | MIPGap  0.01
20:20:03 | INFO    | Presolve  2
20:20:03 | INFO    | 
20:20:03 | INFO    | Optimize a model with 2717 rows, 813 columns and 13589 nonzeros
20:20:03 | INFO    | Model fingerprint: 0x556d1a65
20:20:03 | INFO    | Variable types: 133 continuous, 680 integer (655 binary)
20:20:03 | INFO    | Coefficient statistics:
20:20:03 | INFO    |   Matrix range     [1e+00, 5e+02]
20:20:03 | INFO    |   Objective range  [1e-03, 1e+00]
20:20:03 | INFO    |   Bounds range     [1e+00, 3e+01]
20:20:03 | INFO    |   RHS range        [1e+00, 1e+04]
20:20:03 | INFO    | Presolve removed 2298 rows and 665 columns
20:20:03 | INFO    | Presolve time: 0.01s
20:20:03 | INFO    | Presolved: 419 rows, 148 columns, 2061 nonzeros
20:20:03 | INFO    | Variable types: 33 continuous, 115 integer (105 binary)
20:20:03 | INFO    | Root relaxation presolve removed 12 rows and 0 columns
20:20:03 | INFO    | Root relaxation presolved: 407 rows, 159 columns, 2039 nonzeros
20:20:03 | INFO    | 
20:20:03 | INFO    | 
20:20:03 | INFO    | Root relaxation: objective 1.500000e-02, 90 iterations, 0.00 seconds (0.00 work units)
20:20:03 | INFO    | 
20:20:03 | INFO    |     Nodes    |    Current Node    |     Objective Bounds      |     Work
20:20:03 | INFO    |  Expl Unexpl |  Obj  Depth IntInf | Incumbent    BestBd   Gap | It/Node Time
20:20:03 | INFO    | 
20:20:03 | INFO    |      0     0    0.01500    0   16          -    0.01500      -     -    0s
20:20:03 | INFO    |      0     0    0.01500    0   27          -    0.01500      -     -    0s
20:20:03 | INFO    |      0     0    0.01500    0   29          -    0.01500      -     -    0s
20:20:03 | INFO    | H    0     0                     101.1910000    0.01500   100%     -    0s
20:20:03 | INFO    |      0     0    0.01500    0   20  101.19100    0.01500   100%     -    0s
20:20:03 | INFO    |      0     0    0.01500    0   24  101.19100    0.01500   100%     -    0s
20:20:03 | INFO    | H    0     0                      99.2030000    0.02649   100%     -    0s
20:20:03 | INFO    |      0     0    0.02649    0   29   99.20300    0.02649   100%     -    0s
20:20:03 | INFO    |      0     0    0.02700    0   28   99.20300    0.02700   100%     -    0s
20:20:03 | INFO    |      0     0    0.02904    0   37   99.20300    0.02904   100%     -    0s
20:20:03 | INFO    |      0     0    0.02938    0   35   99.20300    0.02938   100%     -    0s
20:20:03 | INFO    |      0     0    0.04182    0   36   99.20300    0.04182   100%     -    0s
20:20:03 | INFO    |      0     0    0.04584    0   36   99.20300    0.04584   100%     -    0s
20:20:03 | INFO    |      0     0    0.05566    0   37   99.20300    0.05566   100%     -    0s
20:20:03 | INFO    | H    0     0                      86.1210000    0.05635   100%     -    0s
20:20:03 | INFO    |      0     0    0.05635    0   42   86.12100    0.05635   100%     -    0s
20:20:03 | INFO    |      0     0    0.05778    0   40   86.12100    0.05778   100%     -    0s
20:20:03 | INFO    |      0     0    0.05789    0   40   86.12100    0.05789   100%     -    0s
20:20:03 | INFO    |      0     0    0.05835    0   46   86.12100    0.05835   100%     -    0s
20:20:03 | INFO    |      0     0    0.05844    0   47   86.12100    0.05844   100%     -    0s
20:20:03 | INFO    |      0     0    0.05892    0   45   86.12100    0.05892   100%     -    0s
20:20:03 | INFO    |      0     0    0.05900    0   44   86.12100    0.05900   100%     -    0s
20:20:03 | INFO    |      0     0    0.05900    0   45   86.12100    0.05900   100%     -    0s
20:20:03 | INFO    |      0     0    0.05909    0   46   86.12100    0.05909   100%     -    0s
20:20:03 | INFO    |      0     0    0.05909    0   44   86.12100    0.05909   100%     -    0s
20:20:03 | INFO    |      0     0    0.05909    0   43   86.12100    0.05909   100%     -    0s
20:20:03 | INFO    |      0     2    0.05909    0   43   86.12100    0.05909   100%     -    0s
20:20:03 | INFO    | H   71    74                      85.1390000    0.06219   100%  24.3    0s
20:20:03 | INFO    | H  255   260                      84.1430000    0.06219   100%  22.0    0s
20:20:03 | INFO    | H  555   480                      82.1410000    0.06391   100%  18.0    0s
20:20:03 | INFO    | H  612   494                      81.1360000    0.06391   100%  17.5    0s
20:20:04 | INFO    | H 2241  1298                      80.1400000    0.07112   100%  14.9    0s
20:20:04 | INFO    | H 2428  1298                      80.1320000    0.07115   100%  15.0    0s
20:20:04 | INFO    | H 3245  1575                      79.1190000    0.07268   100%  15.0    0s
20:20:04 | INFO    | H 3253  1501                      77.1150000    0.07268   100%  14.9    0s
20:20:04 | INFO    | * 3757  1495              26      77.1020000    0.07268   100%  19.0    0s
20:20:05 | INFO    | H 7360   798                      77.0920000    0.08365   100%  31.1    1s
20:20:05 | INFO    | H 8344   681                      77.0910000    0.08902   100%  32.9    1s
20:20:05 | INFO    | 
20:20:05 | INFO    | Cutting planes:
20:20:05 | INFO    |   Learned: 11
20:20:05 | INFO    |   Gomory: 10
20:20:05 | INFO    |   Cover: 10
20:20:05 | INFO    |   Implied bound: 66
20:20:05 | INFO    |   Clique: 1
20:20:05 | INFO    |   MIR: 137
20:20:05 | INFO    |   StrongCG: 15
20:20:05 | INFO    |   Flow cover: 301
20:20:05 | INFO    |   Inf proof: 27
20:20:05 | INFO    |   Zero half: 4
20:20:05 | INFO    |   RLT: 59
20:20:05 | INFO    |   Relax-and-lift: 40
20:20:05 | INFO    |   PSD: 5
20:20:05 | INFO    | 
20:20:05 | INFO    | Explored 10550 nodes (384688 simplex iterations) in 2.27 seconds (2.37 work units)
20:20:05 | INFO    | Thread count was 16 (of 16 available processors)
20:20:05 | INFO    | 
20:20:05 | INFO    | Solution count 10: 77.091 77.092 77.102 ... 84.143
20:20:05 | INFO    | 
20:20:05 | INFO    | Optimal solution found (tolerance 1.00e-02)
20:20:05 | INFO    | Best objective 7.709100000000e+01, best bound 7.709100000000e+01, gap 0.0000%
20:20:05 | INFO    | Solution found | route_duration=77.00 | total_wait=91.00
20:20:05 | INFO    | Objective=77.09 | runtime=2.27s | MIP Gap=0.00%
20:20:05 | INFO    | Generating Excel output | C:\Users\Asus\Documents\GitHub\logistics-model2\internal-logistics-model2\results\SR_SV_RD\case1\result_SR_SV_RD_case1_P5_eps9999_2026_05_04_20_20.xlsx
20:20:05 | INFO    | Excel output written | 12 sheets | C:\Users\Asus\Documents\GitHub\logistics-model2\internal-logistics-model2\results\SR_SV_RD\case1\result_SR_SV_RD_case1_P5_eps9999_2026_05_04_20_20.xlsx
20:20:06 | INFO    | Master Pareto updated | 4 total rows | C:\Users\Asus\Documents\GitHub\logistics-model2\internal-logistics-model2\results\master_pareto.xlsx
20:20:06 | INFO    | Run complete | run_id=SR_SV_RD_case1_P5_eps9999
